10
0, 771, 422, 610, 645, 738, 292, 552, 803, 895
771, 0, 768, 359, 364, 160, 634, 766, 197, 228
422, 768, 0, 804, 462, 654, 186, 923, 692, 779
610, 359, 804, 0, 582, 466, 623, 414, 530, 583
645, 364, 462, 582, 0, 214, 396, 896, 235, 318
738, 160, 654, 466, 214, 0, 547, 845, 72, 158
292, 634, 186, 623, 396, 547, 0, 743, 599, 692
552, 766, 923, 414, 896, 845, 743, 0, 915, 982
803, 197, 692, 530, 235, 72, 599, 915, 0, 93
895, 228, 779, 583, 318, 158, 692, 982, 93, 0
